NAME : CMT8X
TYPE : MVRPB
DIMENSION : 101
VEHICLES : 9
CAPACITY : 20000
DISTANCE : 230
EDGE_WEIGHT_TYPE : EXACT_2D
NODE_COORD_SECTION
1 35 35
2 41 49
3 35 17
4 55 45
5 55 20
6 15 30
7 25 30
8 20 50
9 10 43
10 55 60
11 30 60
12 20 65
13 50 35
14 30 25
15 15 10
16 30 5
17 10 20
18 5 30
19 20 40
20 15 60
21 45 65
22 45 20
23 45 10
24 55 5
25 65 35
26 65 20
27 45 30
28 35 40
29 41 37
30 64 42
31 40 60
32 31 52
33 35 69
34 53 52
35 65 55
36 63 65
37 2 60
38 20 20
39 5 5
40 60 12
41 40 25
42 42 7
43 24 12
44 23 3
45 11 14
46 6 38
47 2 48
48 8 56
49 13 52
50 6 68
51 47 47
52 49 58
53 27 43
54 37 31
55 57 29
56 63 23
57 53 12
58 32 12
59 36 26
60 21 24
61 17 34
62 12 24
63 24 58
64 27 69
65 15 77
66 62 77
67 49 73
68 67 5
69 56 39
70 37 47
71 37 56
72 57 68
73 47 16
74 44 17
75 46 13
76 49 11
77 49 42
78 53 43
79 61 52
80 57 48
81 56 37
82 55 54
83 15 47
84 14 37
85 11 31
86 16 22
87 4 18
88 28 18
89 26 52
90 26 35
91 31 67
92 15 19
93 22 22
94 18 24
95 26 27
96 25 24
97 22 27
98 25 21
99 19 21
100 20 26
101 18 18
PICKUP_AND_DELIVERY_SECTION
1 0 0 10000000 10 0 0
2 0 0 10000000 10 163 837
3 0 0 10000000 10 360 340
4 0 0 10000000 10 236 1064
5 0 0 10000000 10 1209 691
6 0 0 10000000 10 1300 1300
7 0 0 10000000 10 50 250
8 0 0 10000000 10 300 200
9 0 0 10000000 10 691 209
10 0 0 10000000 10 133 1467
11 0 0 10000000 10 800 800
12 0 0 10000000 10 831 369
13 0 0 10000000 10 570 1330
14 0 0 10000000 10 383 1917
15 0 0 10000000 10 667 1333
16 0 0 10000000 10 667 133
17 0 0 10000000 10 950 950
18 0 0 10000000 10 167 33
19 0 0 10000000 10 600 600
20 0 0 10000000 10 1275 425
21 0 0 10000000 10 277 623
22 0 0 10000000 10 611 489
23 0 0 10000000 10 1400 400
24 0 0 10000000 10 2636 264
25 0 0 10000000 10 138 162
26 0 0 10000000 10 415 185
27 0 0 10000000 10 567 1133
28 0 0 10000000 10 200 1400
29 0 0 10000000 10 156 1444
30 0 0 10000000 10 309 591
31 0 0 10000000 10 700 1400
32 0 0 10000000 10 1090 1610
33 0 0 10000000 10 1133 1167
34 0 0 10000000 10 21 1079
35 0 0 10000000 10 215 1185
36 0 0 10000000 10 25 775
37 0 0 10000000 10 483 17
38 0 0 10000000 10 0 800
39 0 0 10000000 10 0 1600
40 0 0 10000000 10 2480 620
41 0 0 10000000 10 338 563
42 0 0 10000000 10 417 83
43 0 0 10000000 10 250 250
44 0 0 10000000 10 609 91
45 0 0 10000000 10 386 1414
46 0 0 10000000 10 1347 253
47 0 0 10000000 10 96 4
48 0 0 10000000 10 2314 386
49 0 0 10000000 10 2700 900
50 0 0 10000000 10 2735 265
51 0 0 10000000 10 0 1300
52 0 0 10000000 10 155 845
53 0 0 10000000 10 335 565
54 0 0 10000000 10 227 1173
55 0 0 10000000 10 884 916
56 0 0 10000000 10 127 73
57 0 0 10000000 10 464 136
58 0 0 10000000 10 438 263
59 0 0 10000000 10 500 1300
60 0 0 10000000 10 350 2450
61 0 0 10000000 10 150 150
62 0 0 10000000 10 650 650
63 0 0 10000000 10 1114 786
64 0 0 10000000 10 609 391
65 0 0 10000000 10 725 175
66 0 0 10000000 10 390 1610
67 0 0 10000000 10 822 1678
68 0 0 10000000 10 2313 187
69 0 0 10000000 10 1093 2507
70 0 0 10000000 10 128 472
71 0 0 10000000 10 170 330
72 0 0 10000000 10 243 1257
73 0 0 10000000 10 1649 851
74 0 0 10000000 10 552 348
75 0 0 10000000 10 574 226
76 0 0 10000000 10 1396 404
77 0 0 10000000 10 186 1114
78 0 0 10000000 10 264 1136
79 0 0 10000000 10 44 256
80 0 0 10000000 10 363 1937
81 0 0 10000000 10 204 396
82 0 0 10000000 10 47 2553
83 0 0 10000000 10 1089 511
84 0 0 10000000 10 684 416
85 0 0 10000000 10 452 248
86 0 0 10000000 10 1118 2982
87 0 0 10000000 10 2722 778
88 0 0 10000000 10 929 1671
89 0 0 10000000 10 450 450
90 0 0 10000000 10 386 1114
91 0 0 10000000 10 161 139
92 0 0 10000000 10 21 79
93 0 0 10000000 10 0 200
94 0 0 10000000 10 550 1650
95 0 0 10000000 10 100 2600
96 0 0 10000000 10 80 1920
97 0 0 10000000 10 204 896
98 0 0 10000000 10 192 1008
99 0 0 10000000 10 95 905
100 0 0 10000000 10 208 692
101 0 0 10000000 10 0 1700
DEPOT_SECTION
1 
-1
EOF
